(set-logic QF_LIA)
(declare-fun x0 () Int)
(declare-fun x1 () Int)
(declare-fun x2 () Int)
(declare-fun x3 () Int)
(declare-fun x4 () Int)
(declare-fun x5 () Int)
(declare-fun x6 () Int)
(declare-fun x7 () Int)
(declare-fun x8 () Int)
(declare-fun x9 () Int)
(declare-fun A0 () Bool)
(declare-fun A1 () Bool)
(declare-fun A3 () Bool)
(declare-fun A5 () Bool)
(declare-fun A6 () Bool)
(declare-fun A7 () Bool)
(assert (let ((.def_0 (* 1 x0))) (let ((.def_1 (* (- 1) x7))) (let ((.def_2 (+ .def_1 .def_0))) (let ((.def_3 (< .def_2 (- 1)))) (let ((.def_4 (or A0 .def_3))) (let ((.def_5 (not .def_4))) (let ((.def_6 (* (- 1) x5))) (let ((.def_7 (+ .def_6 .def_0))) (let ((.def_8 (< .def_7 1))) (let ((.def_9 (not .def_8))) (let ((.def_10 (* 1 x6))) (let ((.def_11 (* 1 x7))) (let ((.def_12 (+ .def_11 .def_10))) (let ((.def_13 (< .def_12 (- 1)))) (let ((.def_14 (not .def_13))) (let ((.def_15 (and .def_14 .def_9))) (let ((.def_16 (not .def_15))) (let ((.def_17 (and .def_16 .def_5))) (let ((.def_18 (not .def_17))) (let ((.def_19 (* (- 1) x1))) (let ((.def_20 (< .def_19 (- 1)))) (let ((.def_21 (not .def_20))) (let ((.def_22 (or .def_21 A1))) (let ((.def_23 (not .def_22))) (let ((.def_24 (* 1 x3))) (let ((.def_25 (* 1 x2))) (let ((.def_26 (+ .def_25 .def_24))) (let ((.def_27 (< .def_26 1))) (let ((.def_28 (not .def_27))) (let ((.def_29 (* (- 1) x8))) (let ((.def_30 (< .def_29 1))) (let ((.def_31 (not .def_30))) (let ((.def_32 (and .def_31 .def_28))) (let ((.def_33 (or .def_32 .def_23))) (let ((.def_34 (not .def_33))) (let ((.def_35 (and .def_34 .def_18))) (let ((.def_36 (not A6))) (let ((.def_37 (= A5 .def_36))) (let ((.def_38 (not .def_37))) (let ((.def_39 (* (- 1) x4))) (let ((.def_40 (< .def_39 (- 1)))) (let ((.def_41 (* 1 x8))) (let ((.def_42 (+ .def_41 .def_6))) (let ((.def_43 (< .def_42 1))) (let ((.def_44 (not .def_43))) (let ((.def_45 (and .def_44 .def_40))) (let ((.def_46 (not .def_45))) (let ((.def_47 (and .def_46 .def_38))) (let ((.def_48 (not A0))) (let ((.def_49 (not A3))) (let ((.def_50 (or .def_49 .def_48))) (let ((.def_51 (not A7))) (let ((.def_52 (< .def_6 1))) (let ((.def_53 (and .def_52 .def_51))) (let ((.def_54 (and .def_53 .def_50))) (let ((.def_55 (not .def_54))) (let ((.def_56 (or .def_55 .def_47))) (let ((.def_57 (and .def_56 .def_35))) (let ((.def_58 (<= x9 1))) (let ((.def_59 (<= 0 x9))) (let ((.def_60 (<= x8 1))) (let ((.def_61 (<= 0 x8))) (let ((.def_62 (<= x7 1))) (let ((.def_63 (<= 0 x7))) (let ((.def_64 (<= x6 1))) (let ((.def_65 (<= 0 x6))) (let ((.def_66 (<= x5 1))) (let ((.def_67 (<= 0 x5))) (let ((.def_68 (<= x4 1))) (let ((.def_69 (<= 0 x4))) (let ((.def_70 (<= x3 1))) (let ((.def_71 (<= 0 x3))) (let ((.def_72 (<= x2 1))) (let ((.def_73 (<= 0 x2))) (let ((.def_74 (<= x1 1))) (let ((.def_75 (<= 0 x1))) (let ((.def_76 (<= x0 1))) (let ((.def_77 (<= 0 x0))) (let ((.def_78 (and .def_77 .def_76 .def_75 .def_74 .def_73 .def_72 .def_71 .def_70 .def_69 .def_68 .def_67 .def_66 .def_65 .def_64 .def_63 .def_62 .def_61 .def_60 .def_59 .def_58 .def_57))) .def_78))))))))))))))))))))))))))))))))))))))))))))))))))))))))))))))))))))))))))))))))
(check-sat)
